691840
0,161,228,132,154,111,26,168,39,80,129,101,61,54,77,214,74,204,160,115,183,100,165,95,90,8,67,5,202,37,223,32,128,152,216,20,3,227,87,108,141,169,89,149,170,185,145,11,186,102,179,120,40,105,218,65,189,98,201,104,174,53,55,17,91,52,99,215,23,140,127,221,76,157,81,1,114,148,131,51,92,167,171,203,229,103,211,44,212,220,58,57,138,10,142,196,173,75,56,94,78,166,84,122,24,79,181,60,147,130,172,123,187,180,135,205,217,208,72,112,159,41,97,198,177,30,42,146,126,162,15,188,184,59,137,2,207,158,22,68,225,176,50,121,151,190,113,125,69,85,118,194,192,83,28,197,9,200,199,64,153,163,213,45,124,226,13,109,164,193,96,119,7,14,136,63,29,219,12,133,18,110,47,224,46,16,175,222,43,4,155,210,144,143,25,21,88,106,195,178,191,36,33,27,150,49,107,86,34,93,19,116,182,209,6,35,62,31,139,70,117,48,66,206,38,73,156,82,134,71,0